Traveling Salesman Problem/TSP_generados/Aleatorio1620390997_12.tsp
NAME: Aleatorio1620390997_12.tsp
COMMENT: Randomly generated scenario
TYPE: TSP
DIMENSION: 12
EDGE_WEIGHT_TYPE: ATT
NODE_COORD_SECTION
1 47.85 46.89
2 16.4 9.97
3 7.97 37.73
4 16.98 42.75
5 46.4 23.44
6 33.12 32.53
7 37.91 3.64
8 10.5 6.23
9 36.69 8.69
10 9.33 21.66
11 7.28 5.42
12 12.95 4.74
