Traveling Salesman Problem/TSP_generados/Aleatorio1620390997_12.opt.tour
NAME: Aleatorio1620390997_12.opt.tour
COMMENT: Optimal solution for Aleatorio1620390997_12 (163.7099702520386)
TYPE: TOUR
DIMENSION: 12
TOUR_SECTION
1 5 9 7 2 12 8 11 10 3 4 6
-1
EOF
